Name: MW_548.17488@RT_11.519
PrecursorMz: 547.16821
Precursor_type: 
Collision_energy: 30.0
Ionization: ESI
IonMode: negative
RetentionTime: 11.38921
InChiKey: 
Formula: C28 H30 N4 O4 P2
CASNo: 
Smiles: 
CompoundClass: 
Comment: 
Num peaks: 39
50.9269 921.08
55.6748 989.41
56.8678 1023.11
57.7566 948.39
63.6077 991.40
65.1520 997.20
68.2911 1291.10
71.8510 945.68
78.0462 1075.85
87.1745 1025.69
92.9521 1140.71
96.9327 971.02
98.3394 1350.12
103.7806 1063.63
113.0232 1710.66
125.9058 965.23
127.0196 1052.90
130.4104 994.97
140.7699 1025.78
149.7064 1176.42
153.6555 965.69
157.0304 1615.01
169.0300 1233.71
187.0411 2340.00
213.0886 1133.61
213.7705 10990.34
213.7770 6429.00
213.7805 1185.06
247.0624 2970.00
293.8495 991.01
301.6339 1053.78
304.0053 6134.69
307.0833 2801.74
324.3774 979.69
331.9074 1066.15
367.1044 30039.41
372.3932 1115.64
448.6772 1115.74
567.2316 1102.61

Name: MW_402.08200@RT_11.572
PrecursorMz: 401.07458
Precursor_type: 
Collision_energy: 30.0
Ionization: ESI
IonMode: negative
RetentionTime: 11.38039
InChiKey: 
Formula: C16 H15 N6 O5 P
CASNo: 
Smiles: 
CompoundClass: 
Comment: 
Num peaks: 45
52.9409 1017.60
59.0127 3455.35
71.0128 2410.45
81.9565 900.76
86.9578 905.24
87.5256 999.74
89.0233 3358.44
92.9392 1098.32
94.9795 2889.34
95.6544 808.96
97.0284 2875.12
101.0232 2780.01
113.0232 5562.08
118.9794 9583.28
125.0233 6601.23
129.0925 925.57
136.9902 979.65
143.0340 1672.90
144.9950 1393.44
148.9900 5812.88
159.9979 885.31
160.9901 30031.78
163.0057 2105.42
166.1119 974.30
172.9902 8587.41
179.0006 3083.01
184.9902 2283.92
191.0007 2828.08
193.9214 892.48
197.7871 912.97
203.0009 9384.38
210.2068 1004.11
218.8982 1872.95
218.9048 3550.10
221.0115 48778.94
240.9612 938.77
241.6738 1102.79
249.1028 997.27
263.0222 2173.13
293.0331 1615.75
304.0002 2283.43
306.7250 940.88
323.0433 3871.39
383.0642 24041.10
401.0744 8229.32

Name: 3-O-feruloyl-D-quinic acid
PrecursorMz: 367.10425
Precursor_type: 
Collision_energy: 30.0
Ionization: ESI
IonMode: negative
RetentionTime: 11.10211
InChiKey: 
Formula: C17 H20 O9
CASNo: 
Smiles: 
CompoundClass: 
Comment: 
Num peaks: 47
50.5610 820.84
54.6374 912.27
57.1435 870.29
58.7406 859.84
62.5889 844.45
71.0127 3010.31
75.2868 1032.89
78.6771 1021.35
83.4206 1355.42
85.0090 3340.58
85.0284 1453.02
89.0233 1049.14
92.9470 1071.72
93.1967 1039.93
113.0232 10479.52
115.0195 2175.78
116.9848 1058.74
125.4041 854.61
126.1488 877.45
127.0197 2039.44
139.2814 870.75
142.4403 861.32
145.0301 4057.27
155.0783 838.35
157.0303 7188.99
168.7152 924.32
169.0300 1864.14
183.2100 1029.18
187.0409 12035.72
193.5552 872.99
203.0508 3471.85
205.0515 3662.03
214.1891 3201.42
214.1955 11495.68
217.0515 2638.82
238.8587 921.74
247.0624 13013.35
277.0727 5191.26
285.0552 1146.25
296.6679 928.58
304.0059 4472.86
307.0837 11359.15
339.3574 906.39
341.0817 1022.83
361.8571 1089.00
367.1043 59820.21
367.3578 1247.81

Name: 3-O-feruloyl-D-quinic acid
PrecursorMz: 367.10413
Precursor_type: 
Collision_energy: 30.0
Ionization: ESI
IonMode: negative
RetentionTime: 11.65417
InChiKey: 
Formula: C17 H20 O9
CASNo: 
Smiles: 
CompoundClass: 
Comment: 
Num peaks: 67
55.5245 7870.21
59.0127 68213.37
60.2603 8927.72
61.0091 24094.90
61.6364 9069.10
63.9624 8660.81
68.0798 9280.90
69.1957 8675.15
71.0127 258917.30
73.0283 13059.28
81.0334 13688.95
83.0126 13571.42
83.4262 10138.15
84.0126 8023.68
85.0091 292465.60
85.0284 146060.80
88.4127 8637.38
88.4142 11180.30
89.0233 88336.85
95.0127 54551.52
97.0283 33738.09
101.0041 9376.75
101.0232 83092.96
103.0196 38315.36
107.9179 8963.22
113.0232 914706.20
114.0265 12014.40
115.0196 163880.80
115.6250 9552.88
119.0336 18119.18
121.5684 8115.76
125.0233 129810.40
127.0197 184181.20
129.8970 8943.32
131.0338 14718.13
133.3827 9249.74
139.0195 26769.03
143.0338 66742.28
144.0338 10028.69
145.0302 395052.30
146.0697 8548.66
157.0303 613398.40
161.0444 30491.44
169.0303 197065.30
186.0444 26623.24
187.0409 832534.90
199.0411 13995.73
201.2420 9814.00
205.0515 201498.60
213.3014 9461.03
216.9254 33691.72
216.9320 45362.44
217.0516 250417.80
245.0369 9109.62
246.0659 12192.82
247.0624 780435.40
270.4933 9210.86
277.0729 362474.40
304.0013 28929.14
304.0105 9503.29
307.0834 854208.60
308.6954 8534.58
313.0635 9640.18
323.2186 8399.11
335.7144 10502.55
367.1041 3834337.00
378.6550 8182.69

Name: MW_367.11527@RT_11.527
PrecursorMz: 366.05392
Precursor_type: 
Collision_energy: 30.0
Ionization: ESI
IonMode: negative
RetentionTime: 11.11918
InChiKey: 
Formula: unknown
CASNo: 
Smiles: 
CompoundClass: 
Comment: 
Num peaks: 59
53.9147 817.80
56.9291 913.93
56.9335 879.57
64.8988 871.00
66.4966 834.54
67.8353 870.11
68.2891 1098.77
68.7855 988.74
71.0128 1595.75
71.0698 871.21
73.6917 877.58
75.2883 1013.87
76.1319 984.19
76.9894 977.63
79.8764 1034.98
81.8930 921.50
83.4225 1483.43
84.0126 1182.76
85.0283 1014.94
91.2218 1011.47
98.3361 1243.49
101.6493 926.25
104.2058 1350.16
105.0264 885.12
107.0491 1659.00
113.0232 3463.71
125.0234 1356.39
133.8466 1033.03
144.0339 1798.50
148.4559 905.06
153.3904 935.28
156.0339 3190.74
156.0704 878.34
159.2483 982.72
163.7424 973.85
168.9622 898.50
169.2408 966.08
169.6774 916.60
171.6542 912.69
178.1981 1250.59
186.0446 3800.09
202.0476 26052.30
204.0557 1054.34
217.8454 3367.42
217.8521 2644.95
220.0587 2094.63
239.6027 853.78
246.0662 5760.09
276.0763 1643.57
282.1710 977.95
284.0510 9004.82
304.0034 2899.99
306.0872 4792.23
306.0986 968.73
354.9961 1265.15
366.0571 1391.86
366.1080 24534.28
366.1191 877.44
384.0670 1187.67

Name: MW_367.11527@RT_11.527
PrecursorMz: 366.10806
Precursor_type: 
Collision_energy: 30.0
Ionization: ESI
IonMode: negative
RetentionTime: 11.17458
InChiKey: 
Formula: unknown
CASNo: 
Smiles: 
CompoundClass: 
Comment: 
Num peaks: 72
51.5247 877.11
55.0892 1037.53
55.2230 981.15
57.3056 868.49
59.0127 2593.35
59.6723 882.18
63.7151 1013.50
70.1588 889.61
71.0127 6557.27
72.2082 815.37
75.2896 941.88
78.4999 986.84
81.3055 1010.85
83.0126 976.93
83.4201 991.56
83.4215 1011.84
84.0127 6488.24
85.0283 3768.93
89.0233 2379.45
91.2099 993.87
95.0126 1570.07
98.0421 877.77
100.5624 912.85
101.0233 1672.86
102.0233 1627.52
104.2041 1208.09
105.7033 1004.94
111.1896 1071.64
113.0232 25429.11
114.0234 4660.86
117.7922 934.53
125.0233 2685.10
125.9859 925.63
126.0232 6265.84
128.9407 906.34
133.8433 1002.62
137.1243 866.01
143.0339 2477.79
144.0339 11006.08
145.5268 886.04
147.5184 866.60
153.6474 1114.41
154.7045 1139.43
156.0339 15419.50
156.5215 860.35
160.4353 858.84
161.0442 1040.88
168.0340 5799.53
168.6539 939.28
168.7380 883.56
170.7869 1122.84
186.0446 23288.04
194.5164 915.49
202.0251 905.44
202.0477 20624.61
204.0550 6035.86
211.8459 891.67
216.0552 7289.67
219.4330 4478.30
220.0583 1049.15
246.0659 28058.62
246.0776 1275.85
276.0764 10029.27
279.2188 952.51
284.0510 5448.65
291.4376 984.37
303.0007 1035.98
303.9999 1838.24
306.0870 20604.54
309.0787 889.93
324.3338 941.70
366.1079 127774.10

Name: MW_367.11527@RT_11.527
PrecursorMz: 366.10800
Precursor_type: 
Collision_energy: 30.0
Ionization: ESI
IonMode: negative
RetentionTime: 11.78953
InChiKey: 
Formula: unknown
CASNo: 
Smiles: 
CompoundClass: 
Comment: 
Num peaks: 55
57.2316 1031.73
59.0127 1339.76
62.2263 1169.18
70.4951 884.80
71.0128 7322.29
73.1047 752.41
74.1743 791.98
78.3881 907.08
79.3045 975.69
83.2319 902.59
84.0127 10186.69
85.0284 2917.75
87.4145 793.41
89.0233 1831.23
91.2091 845.96
101.0234 2147.03
102.0233 1399.67
104.2116 1022.60
113.0234 27867.69
114.0234 4756.33
116.1551 974.91
117.6450 1092.32
125.0233 4463.60
125.0927 947.01
126.0234 5111.41
127.4908 859.72
143.0340 1785.79
144.0339 13548.76
153.6590 948.52
155.4318 961.85
156.0340 20571.98
156.6791 1114.50
162.3172 855.52
168.0340 5623.57
170.0082 954.58
171.1107 929.39
186.0447 28427.80
192.0578 1001.25
204.0552 6210.20
216.0554 7714.97
221.0025 1036.12
221.0080 3737.81
242.5727 1093.69
246.0660 24840.00
254.9063 2313.81
256.2647 1047.88
265.5006 867.66
276.0768 9437.03
291.5254 1010.13
304.0067 1044.38
306.0872 26499.47
313.1198 1066.01
365.1002 1033.76
366.1080 132769.50
384.9747 951.77

Name: MW_350.16812@RT_11.589
PrecursorMz: 349.16092
Precursor_type: 
Collision_energy: 30.0
Ionization: ESI
IonMode: negative
RetentionTime: 11.31916
InChiKey: 
Formula: C10 H22 N8 O6
CASNo: 
Smiles: 
CompoundClass: 
Comment: 
Num peaks: 38
50.9671 979.19
51.4766 1142.18
56.8738 947.04
58.8641 821.25
59.9976 1060.13
60.4869 851.37
63.1841 766.27
63.6987 782.14
63.7640 870.94
66.4625 825.24
66.7211 874.56
71.0127 1271.62
72.1171 956.67
72.2182 855.80
72.3804 853.40
72.9173 892.95
74.7960 855.49
83.1888 837.27
92.9336 865.69
115.7333 886.58
117.6430 1010.75
129.0297 888.78
134.8456 853.59
161.8178 930.08
169.0973 30280.30
184.3271 1025.60
219.7654 1879.35
219.7720 2459.80
223.2154 907.10
254.1778 893.10
254.9724 903.08
277.2774 928.28
277.4174 912.58
278.1679 883.12
286.7974 977.78
315.0186 894.45
331.3906 1067.36
345.7285 895.00

Name: MW_345.10849@RT_11.739
PrecursorMz: 344.10135
Precursor_type: 
Collision_energy: 30.0
Ionization: ESI
IonMode: negative
RetentionTime: 11.67102
InChiKey: 
Formula: C12 H19 N5 O5 S
CASNo: 
Smiles: 
CompoundClass: 
Comment: 
Num peaks: 34
50.2881 763.16
50.4735 842.49
56.7776 812.13
56.9228 842.05
57.4971 790.56
57.9716 853.64
58.6308 880.39
63.6879 858.93
63.9614 1263.80
68.2833 1016.70
70.7356 861.32
71.3865 942.85
76.9692 1379.28
78.2656 936.63
80.9640 857.78
86.4832 822.43
90.2734 881.28
100.0392 2294.33
100.8957 921.00
117.2447 893.65
123.5392 818.77
127.7830 1070.13
134.9159 912.15
138.7462 1031.38
154.5242 813.65
164.0377 30223.53
166.7516 988.43
173.2383 1019.58
218.5431 5923.05
234.5680 864.20
251.7094 1046.36
273.4838 898.29
279.2254 899.42
304.0013 1884.80

Name: MW_338.13180@RT_11.380
PrecursorMz: 337.12442
Precursor_type: 
Collision_energy: 30.0
Ionization: ESI
IonMode: negative
RetentionTime: 11.19211
InChiKey: 
Formula: C12 H22 N2 O9
CASNo: 
Smiles: 
CompoundClass: 
Comment: 
Num peaks: 30
53.5449 917.07
59.0127 1983.99
60.2011 868.31
61.0657 939.70
62.1984 800.59
66.2569 784.63
66.6003 822.47
71.7593 897.48
72.2993 844.90
75.2866 834.33
89.0233 1759.92
91.2861 924.21
92.9473 1129.70
101.6007 940.46
113.0231 1046.64
150.7650 930.92
153.6484 936.52
157.0608 26768.58
194.7539 873.46
206.8421 886.83
214.4641 12189.40
214.4704 1345.58
221.5184 899.58
254.9061 1443.77
261.0367 1002.38
283.1996 853.17
304.0033 4665.24
327.2229 993.98
332.0617 884.62
337.2054 921.93

Name: MW_311.13220@RT_11.718
PrecursorMz: 310.11356
Precursor_type: 
Collision_energy: 30.0
Ionization: ESI
IonMode: negative
RetentionTime: 11.59157
InChiKey: 
Formula: C11 H17 N7 O4
CASNo: 
Smiles: 
CompoundClass: 
Comment: 
Num peaks: 32
59.0128 5639.57
71.0127 4221.62
72.2200 908.95
79.9453 806.68
84.3861 854.50
88.0392 15549.96
88.1520 843.19
89.0233 5934.67
92.9163 854.82
97.8341 826.52
98.0236 983.59
101.0232 2114.70
104.2143 931.47
110.0166 900.97
113.0232 2111.78
119.0338 3049.37
123.5354 748.39
126.1183 895.27
128.0341 1350.84
130.0498 29990.94
130.0611 7701.90
179.0549 1285.95
189.9663 915.20
210.3715 862.69
214.8543 4926.46
214.8610 6342.73
233.9432 915.82
288.1575 823.14
288.7834 901.65
301.9508 1154.66
303.9995 3819.46
316.2267 850.75

Name: MW_311.13220@RT_11.718
PrecursorMz: 310.12482
Precursor_type: 
Collision_energy: 30.0
Ionization: ESI
IonMode: negative
RetentionTime: 11.59400
InChiKey: 
Formula: C11 H17 N7 O4
CASNo: 
Smiles: 
CompoundClass: 
Comment: 
Num peaks: 43
52.4660 790.48
53.5857 742.52
54.9443 872.53
58.5577 846.41
59.0127 6718.89
60.3234 758.31
66.8759 870.59
67.1091 831.09
69.1531 932.86
71.0127 4732.80
76.6762 879.05
78.3349 887.08
79.9502 819.19
79.9596 902.21
83.4009 929.05
86.8315 759.23
88.0392 18332.89
89.0232 8692.97
92.8114 945.98
96.4452 823.22
98.0235 1113.52
101.0233 3392.52
104.2093 1074.27
113.0232 2512.62
119.0338 3258.19
128.0341 1476.64
130.0498 30072.35
130.0611 10562.08
146.5938 830.63
149.0983 942.09
153.6549 820.19
161.6527 861.96
166.0880 842.09
170.4810 913.85
179.0551 1135.06
203.7367 917.95
209.1436 892.94
218.6621 5030.22
233.1272 853.64
279.0091 842.02
303.9983 921.52
304.0067 1813.93
305.5896 909.75

Name: N2-Dimethylguanosine part of 11.5 min gang
PrecursorMz: 310.11356
Precursor_type: 
Collision_energy: 30.0
Ionization: ESI
IonMode: negative
RetentionTime: 11.59157
InChiKey: 
Formula: C12 H17 N5 O5
CASNo: 
Smiles: 
CompoundClass: 
Comment: 
Num peaks: 32
59.0128 5639.57
71.0127 4221.62
72.2200 908.95
79.9453 806.68
84.3861 854.50
88.0392 15549.96
88.1520 843.19
89.0233 5934.67
92.9163 854.82
97.8341 826.52
98.0236 983.59
101.0232 2114.70
104.2143 931.47
110.0166 900.97
113.0232 2111.78
119.0338 3049.37
123.5354 748.39
126.1183 895.27
128.0341 1350.84
130.0498 29990.94
130.0611 7701.90
179.0549 1285.95
189.9663 915.20
210.3715 862.69
214.8543 4926.46
214.8610 6342.73
233.9432 915.82
288.1575 823.14
288.7834 901.65
301.9508 1154.66
303.9995 3819.46
316.2267 850.75

Name: N2-Dimethylguanosine part of 11.5 min gang
PrecursorMz: 310.12482
Precursor_type: 
Collision_energy: 30.0
Ionization: ESI
IonMode: negative
RetentionTime: 11.59400
InChiKey: 
Formula: C12 H17 N5 O5
CASNo: 
Smiles: 
CompoundClass: 
Comment: 
Num peaks: 43
52.4660 790.48
53.5857 742.52
54.9443 872.53
58.5577 846.41
59.0127 6718.89
60.3234 758.31
66.8759 870.59
67.1091 831.09
69.1531 932.86
71.0127 4732.80
76.6762 879.05
78.3349 887.08
79.9502 819.19
79.9596 902.21
83.4009 929.05
86.8315 759.23
88.0392 18332.89
89.0232 8692.97
92.8114 945.98
96.4452 823.22
98.0235 1113.52
101.0233 3392.52
104.2093 1074.27
113.0232 2512.62
119.0338 3258.19
128.0341 1476.64
130.0498 30072.35
130.0611 10562.08
146.5938 830.63
149.0983 942.09
153.6549 820.19
161.6527 861.96
166.0880 842.09
170.4810 913.85
179.0551 1135.06
203.7367 917.95
209.1436 892.94
218.6621 5030.22
233.1272 853.64
279.0091 842.02
303.9983 921.52
304.0067 1813.93
305.5896 909.75

Name: MW_308.09075@RT_11.348
PrecursorMz: 307.08347
Precursor_type: 
Collision_energy: 30.0
Ionization: ESI
IonMode: negative
RetentionTime: 11.26127
InChiKey: 
Formula: unknown
CASNo: 
Smiles: 
CompoundClass: 
Comment: 
Num peaks: 40
50.2282 768.58
54.4840 905.10
55.0878 803.98
56.5436 758.82
59.1665 853.95
59.8539 874.26
62.7747 771.77
66.3333 889.69
67.0517 733.47
67.3832 940.41
71.0127 1127.63
71.4711 836.75
72.1622 871.06
85.0090 4406.13
85.0284 1397.17
99.6562 980.78
103.6360 957.80
104.2017 984.40
108.7057 927.82
113.0231 3847.70
115.0196 1055.20
117.6366 1106.36
119.0337 1396.34
127.0195 1575.17
130.7528 840.92
131.3653 848.69
137.5138 817.19
137.8998 865.15
145.0303 6285.15
157.0302 3877.28
183.6427 977.59
187.0410 7111.04
190.4223 855.07
214.8754 4180.33
214.8821 6432.56
217.0519 5935.00
228.0470 880.07
237.1235 2738.80
247.0625 5647.02
307.0834 25872.87

Name: MW_270.09455@RT_11.461
PrecursorMz: 269.08746
Precursor_type: 
Collision_energy: 30.0
Ionization: ESI
IonMode: negative
RetentionTime: 11.11429
InChiKey: 
Formula: C4 H15 N8 O4 P
CASNo: 
Smiles: 
CompoundClass: 
Comment: 
Num peaks: 42
52.7865 820.24
55.3175 864.85
56.8785 875.77
58.3817 749.93
60.0803 766.16
65.4011 762.54
66.9582 1191.73
68.2906 809.21
68.5657 683.43
69.3370 713.28
71.5809 809.52
75.0918 936.74
80.0377 752.71
82.7853 770.98
83.4241 1167.37
84.8648 853.86
86.7907 900.03
88.2133 909.15
89.0233 3195.84
92.1510 937.15
92.9500 1123.10
92.9516 1214.33
93.2343 762.96
104.2077 964.30
106.1303 838.93
110.6995 894.16
111.5445 884.00
133.8487 1128.11
138.9981 770.34
148.9848 803.35
151.0262 959.09
153.6541 913.74
158.8803 894.18
164.4030 905.14
171.9964 934.97
213.8592 4149.29
213.8657 10037.78
214.6429 1023.52
243.2154 928.96
249.3178 1001.96
269.2116 12603.58
269.2481 7941.24

Name: MW_270.09455@RT_11.461
PrecursorMz: 269.08743
Precursor_type: 
Collision_energy: 30.0
Ionization: ESI
IonMode: negative
RetentionTime: 11.72861
InChiKey: 
Formula: C4 H15 N8 O4 P
CASNo: 
Smiles: 
CompoundClass: 
Comment: 
Num peaks: 34
59.4165 769.34
60.9628 832.29
62.2246 746.31
65.7045 887.39
66.5185 728.14
79.6133 775.77
79.7699 753.60
83.1466 810.85
83.4261 1073.23
89.0233 5042.57
91.4521 888.34
111.6902 895.23
124.6851 781.20
133.8524 1146.54
143.9509 782.49
153.6575 1223.50
157.1942 821.05
157.6220 820.77
164.8925 1031.85
174.2921 765.42
177.0275 923.51
178.2067 817.07
178.4255 935.87
184.7931 890.90
212.6956 1061.90
215.5934 1210.50
215.5996 8787.30
217.4446 806.04
234.5013 850.51
235.9129 944.17
257.7567 944.06
269.1024 1582.31
269.2116 11985.60
269.2479 6480.65

Name: MW_256.07882@RT_11.432
PrecursorMz: 255.07146
Precursor_type: 
Collision_energy: 30.0
Ionization: ESI
IonMode: negative
RetentionTime: 11.24967
InChiKey: 
Formula: C8 H16 O9
CASNo: 
Smiles: 
CompoundClass: 
Comment: 
Num peaks: 45
58.8900 950.69
59.7870 810.25
62.2959 889.25
65.5533 867.84
67.2607 774.60
70.4687 821.75
72.5270 771.67
73.8534 812.68
75.0076 4654.69
78.2510 835.05
80.8684 764.74
81.5892 824.40
83.1857 809.07
86.4629 826.62
88.1550 815.63
89.0232 845.41
90.6163 800.17
102.4687 973.67
102.5444 850.17
103.2129 769.36
110.2174 736.75
117.6396 971.08
122.0632 852.46
125.0839 1008.48
137.6355 801.42
147.5559 915.03
154.9463 5515.20
157.0607 1911.16
162.6980 904.62
172.9569 3887.17
173.0921 4796.79
178.2025 955.67
183.4774 865.52
195.0744 1053.50
195.3483 820.23
201.4016 775.96
206.1600 822.99
216.8185 740.24
220.5333 1986.49
220.5395 1266.23
222.9398 828.44
223.1329 884.33
253.0841 904.72
254.9058 1689.92
255.2323 132005.30

Name: MW_256.07882@RT_11.432
PrecursorMz: 254.96053
Precursor_type: 
Collision_energy: 30.0
Ionization: ESI
IonMode: negative
RetentionTime: 11.53788
InChiKey: 
Formula: C8 H16 O9
CASNo: 
Smiles: 
CompoundClass: 
Comment: 
Num peaks: 33
52.2016 794.88
53.9938 727.13
54.1708 772.43
56.4790 841.02
58.2744 1032.35
61.2586 826.53
63.3327 756.02
64.8400 755.38
67.9618 753.72
68.0384 862.59
75.0076 9824.33
75.2911 1240.62
78.3554 909.20
85.2402 932.05
89.2978 711.68
91.6446 844.43
97.3907 751.30
111.3390 949.48
114.4996 995.95
117.6409 950.77
154.9463 10672.21
171.0042 974.43
171.1443 838.17
172.9569 11602.48
194.9390 2191.73
215.8230 5469.15
215.8295 2825.72
239.2635 940.40
254.9061 5988.49
255.1961 1211.16
255.2322 117025.90
255.7722 857.99
266.6945 965.77

Name: MW_243.05843@RT_11.536
PrecursorMz: 242.05093
Precursor_type: 
Collision_energy: 30.0
Ionization: ESI
IonMode: negative
RetentionTime: 11.38992
InChiKey: 
Formula: C6 H13 N O9
CASNo: 
Smiles: 
CompoundClass: 
Comment: 
Num peaks: 26
56.9267 769.86
61.9873 5370.18
67.4078 874.09
67.7553 895.23
75.2858 1092.00
75.8632 883.17
77.2387 853.01
80.0649 830.11
82.8350 906.57
83.0106 803.36
85.9931 753.58
87.8275 784.09
102.3621 896.05
104.2003 693.76
106.3136 811.46
117.5667 967.89
121.5335 876.05
189.1879 775.74
209.7138 795.02
218.6042 1835.15
218.6107 4084.68
227.5842 912.63
242.1029 823.30
242.2071 857.63
242.2199 1412.74
260.2934 896.40

Name: MW_243.05843@RT_11.536
PrecursorMz: 242.07924
Precursor_type: 
Collision_energy: 30.0
Ionization: ESI
IonMode: negative
RetentionTime: 11.52878
InChiKey: 
Formula: C6 H13 N O9
CASNo: 
Smiles: 
CompoundClass: 
Comment: 
Num peaks: 34
50.5286 889.53
51.9529 834.90
56.9350 827.74
58.3772 860.48
63.1543 853.77
67.0365 857.73
68.2161 816.47
68.4576 874.04
70.8345 763.79
70.8356 865.61
74.7414 692.33
75.6807 799.26
78.9579 27178.34
79.2815 770.48
80.3011 845.28
84.8485 898.55
93.9575 867.21
95.5105 740.59
98.3351 1053.95
103.5209 829.87
109.4564 871.08
152.8298 891.68
152.9948 8832.32
153.1161 849.47
165.9657 989.42
168.0421 30924.20
170.1521 891.87
171.0053 2460.20
219.0029 3781.39
223.8611 791.48
227.5102 943.51
242.0792 44595.89
242.1751 1392.60
260.8667 790.41

Name: MW_240.08375@RT_11.564
PrecursorMz: 239.06429
Precursor_type: 
Collision_energy: 30.0
Ionization: ESI
IonMode: negative
RetentionTime: 11.25587
InChiKey: 
Formula: C5 H8 N10 O2
CASNo: 
Smiles: 
CompoundClass: 
Comment: 
Num peaks: 39
52.0448 763.56
53.7116 845.96
58.6406 882.65
59.0127 1404.61
61.0438 719.55
62.5392 810.81
70.7930 1002.79
74.3859 931.95
74.5958 724.89
75.1849 682.37
75.2833 1163.72
75.9696 800.67
83.4158 1130.46
83.9535 861.63
84.2631 888.39
84.2986 801.34
97.7875 858.96
104.0312 797.06
104.1979 1265.10
111.3453 863.68
126.0912 7753.53
126.2957 882.20
157.0608 59721.27
179.5656 850.71
187.8955 789.58
194.5871 782.12
199.4415 880.27
209.1193 802.35
214.2971 13348.65
215.9480 761.13
222.9079 817.78
225.5902 913.40
225.7764 910.09
239.0515 1214.37
239.0654 2324.95
239.1393 10695.75
242.2140 837.56
251.0509 850.71
259.5361 905.63

Name: MW_240.08375@RT_11.564
PrecursorMz: 239.07661
Precursor_type: 
Collision_energy: 30.0
Ionization: ESI
IonMode: negative
RetentionTime: 11.45384
InChiKey: 
Formula: C5 H8 N10 O2
CASNo: 
Smiles: 
CompoundClass: 
Comment: 
Num peaks: 37
50.9058 868.44
51.8584 858.93
52.8012 704.13
52.9683 712.30
56.5505 645.72
56.9296 850.71
57.9167 792.06
58.7140 892.20
59.0127 1036.56
63.0313 736.12
63.2164 760.62
64.6692 751.23
65.1833 822.21
65.2352 680.81
69.4985 817.00
83.2163 937.31
83.4239 973.96
86.1663 799.18
94.6263 756.05
98.1442 989.99
100.2087 835.41
109.5180 861.06
126.0913 9914.44
150.6653 806.50
157.0608 65092.05
160.6856 845.82
160.9756 860.05
179.4480 1000.70
187.7499 894.65
208.8379 938.09
223.0275 1164.84
223.1759 936.14
223.1813 2095.96
239.0649 3131.16
239.1106 1407.02
239.1394 13128.54
251.7464 904.36

Name: Secobarbital
PrecursorMz: 237.12364
Precursor_type: 
Collision_energy: 30.0
Ionization: ESI
IonMode: negative
RetentionTime: 11.32651
InChiKey: 
Formula: C12 H18 N2 O3
CASNo: 
Smiles: 
CompoundClass: 
Comment: 
Num peaks: 35
50.1055 744.10
53.7093 873.31
57.5230 766.83
59.0128 1369.93
59.3921 803.16
63.0110 850.00
63.3186 805.63
63.7392 783.20
64.6072 860.32
67.4680 767.78
69.5968 729.35
78.8949 942.28
83.2342 911.33
84.9524 777.80
88.9736 759.96
90.8464 673.97
93.0447 1197.68
95.7057 742.03
98.0933 777.96
102.2243 912.51
105.0669 842.83
125.5183 1000.56
130.6195 893.31
150.1279 1155.29
178.6016 858.29
192.9409 898.91
193.1336 2951.79
199.3704 851.91
199.4862 812.40
217.8736 4748.91
217.8799 1636.25
218.2681 799.24
228.3382 882.63
237.1238 34754.77
238.5848 833.74

Name: MW_223.06843@RT_11.576
PrecursorMz: 222.06099
Precursor_type: 
Collision_energy: 30.0
Ionization: ESI
IonMode: negative
RetentionTime: 11.37793
InChiKey: 
Formula: C7 H13 N O7
CASNo: 
Smiles: 
CompoundClass: 
Comment: 
Num peaks: 33
50.0661 885.97
53.6434 779.05
53.7376 824.10
54.0147 701.35
54.3712 717.67
54.7084 855.70
59.0128 917.60
59.7109 867.26
61.9616 774.67
62.2094 825.04
63.3745 714.71
70.2328 762.31
76.2746 821.24
76.5679 858.39
76.6321 877.83
78.7285 745.84
92.9439 741.19
94.3268 756.43
99.3908 870.17
100.7825 869.84
105.6276 732.87
113.5735 805.36
117.3920 926.47
122.4264 847.26
123.9007 946.00
133.8395 1038.98
147.4418 858.25
152.0573 742.06
170.5987 896.63
178.1894 946.44
213.9457 9511.40
213.9522 3852.89
240.7017 861.43

Name: MW_218.03631@RT_11.610
PrecursorMz: 216.93190
Precursor_type: 
Collision_energy: 30.0
Ionization: ESI
IonMode: negative
RetentionTime: 11.67523
InChiKey: 
Formula: C9 H7 N4 O P
CASNo: 
Smiles: 
CompoundClass: 
Comment: 
Num peaks: 40
54.9315 759.80
56.4933 725.97
57.2977 753.78
57.6278 855.77
59.0128 5572.72
68.2925 977.17
68.2945 781.14
70.6112 848.42
71.0128 1063.71
72.0751 818.28
73.6041 864.24
81.5538 901.50
89.0233 1872.50
91.7626 892.65
98.6419 784.56
101.7131 827.79
102.4394 712.97
103.2455 940.74
104.2108 924.11
108.9459 840.06
113.0231 998.47
117.6451 961.40
119.0337 1336.79
120.6387 949.67
120.9870 773.70
129.9101 869.81
138.3054 809.56
145.0970 974.20
147.9323 803.60
165.2356 833.34
171.1017 932.03
174.9914 4772.01
187.7235 807.98
202.9137 805.02
217.0021 3719.13
217.0288 1370.56
217.1075 1242.72
217.1185 3940.29
220.1192 3426.36
228.6623 903.89

Name: MW_217.04256@RT_11.613
PrecursorMz: 216.03545
Precursor_type: 
Collision_energy: 30.0
Ionization: ESI
IonMode: negative
RetentionTime: 11.66743
InChiKey: 
Formula: C9 H13 Cl N O P
CASNo: 
Smiles: 
CompoundClass: 
Comment: 
Num peaks: 39
51.0661 825.74
51.9123 771.42
59.0127 8196.87
59.5781 703.50
60.5146 780.70
61.1736 693.95
62.5932 719.11
67.8268 760.81
68.3319 821.26
68.3614 708.08
70.7768 756.73
71.0890 896.35
71.5870 775.18
79.6907 817.23
80.3842 796.32
82.3035 685.10
83.4066 805.84
85.4050 696.30
89.5284 778.13
90.5732 742.73
97.7708 749.10
100.3108 790.72
101.0236 924.36
101.7558 731.02
102.9835 981.99
121.1617 807.53
124.1871 911.23
125.6334 793.99
142.5402 819.67
148.0529 802.47
174.9916 6097.22
209.2239 929.79
209.7733 810.27
210.1077 901.85
217.0022 1773.26
223.1710 881.27
223.1841 2486.37
224.4489 789.58
228.8116 993.75

Name: 2-C-methylerythritol 4-phosphate
PrecursorMz: 215.03198
Precursor_type: 
Collision_energy: 30.0
Ionization: ESI
IonMode: negative
RetentionTime: 11.99957
InChiKey: 
Formula: C5 H13 O7 P
CASNo: 
Smiles: 
CompoundClass: 
Comment: 
Num peaks: 31
50.2125 791.26
50.5058 891.61
51.5146 913.40
52.9538 755.98
53.3855 828.57
59.0128 790.10
62.0105 771.13
68.3528 749.56
78.4294 710.86
83.4186 873.00
87.4478 793.99
88.0393 1496.35
89.0203 743.13
89.0234 995.06
92.9449 1029.03
101.8539 792.63
104.2016 919.62
118.0500 968.80
131.2131 816.90
131.3580 740.90
143.2296 948.82
145.5626 764.91
167.6146 851.19
174.9763 871.80
175.3058 890.63
178.1952 796.22
200.8633 758.20
214.9135 4764.91
220.9723 1930.63
220.9786 1730.90
231.0257 794.10

Name: Azelaic acid
PrecursorMz: 187.09665
Precursor_type: 
Collision_energy: 30.0
Ionization: ESI
IonMode: negative
RetentionTime: 11.44954
InChiKey: 
Formula: C9 H16 O4
CASNo: 
Smiles: 
CompoundClass: 
Comment: 
Num peaks: 43
53.3183 917.81
58.1877 757.45
64.0998 731.78
66.7295 966.78
71.0127 1383.79
75.9391 804.53
77.4350 824.60
83.4250 1034.35
85.0091 782.38
86.6534 791.75
88.3785 819.81
89.7602 897.37
91.4151 843.43
93.2445 803.90
97.0648 2169.31
104.2084 1028.40
110.7434 895.28
114.1750 823.66
122.3447 776.08
123.0801 815.99
125.0960 37221.52
127.0195 2282.05
129.6225 872.27
132.6647 786.63
141.3589 887.51
143.0703 1550.10
144.4248 729.25
152.3990 828.25
153.0525 770.71
157.0302 1719.01
162.7442 813.07
165.2462 753.96
167.3284 906.88
168.6545 817.35
169.0858 1244.97
170.2823 788.66
171.4337 759.33
183.4315 1021.42
187.0503 1273.67
187.0606 1019.31
187.0966 18633.51
187.1328 1123.22
190.6573 904.01

Name: MW_181.06578@RT_11.539
PrecursorMz: 180.06567
Precursor_type: 
Collision_energy: 30.0
Ionization: ESI
IonMode: negative
RetentionTime: 10.96372
InChiKey: 
Formula: C9 H11 N O3
CASNo: 
Smiles: 
CompoundClass: 
Comment: 
Num peaks: 36
53.2721 742.18
55.2636 790.46
56.8176 828.65
59.1321 824.97
61.7519 852.72
65.1152 701.41
67.3787 804.19
69.0167 745.18
71.1160 787.38
72.0080 7003.07
72.0393 792.79
72.9476 918.53
73.3521 897.36
75.2882 968.11
75.7914 748.49
75.9834 803.42
77.8492 824.14
81.0656 706.80
83.4212 967.89
86.6353 743.00
89.7345 730.63
93.0335 5396.32
94.5217 765.99
98.9728 750.23
104.2047 1038.13
118.2683 838.85
119.0491 13332.19
130.2783 888.48
145.6743 824.84
150.4047 870.35
161.1171 759.84
163.0391 26624.01
172.5094 837.43
180.0657 32517.49
182.7159 846.64
187.3360 818.28

Name: Glucose
PrecursorMz: 179.05525
Precursor_type: 
Collision_energy: 30.0
Ionization: ESI
IonMode: negative
RetentionTime: 11.51273
InChiKey: 
Formula: C6 H12 O6
CASNo: 
Smiles: 
CompoundClass: 
Comment: 
Num peaks: 37
51.2548 1137.75
55.6145 1275.77
58.6510 1434.96
59.0128 71826.47
62.4800 1268.36
71.0128 40854.98
72.9919 2797.40
73.0762 1232.78
75.0077 2383.01
76.9405 1274.92
79.7701 1177.48
81.5923 1341.19
83.5092 1268.10
85.0284 4449.36
89.0233 28121.11
95.0127 1586.57
96.3542 1471.49
98.9501 1292.66
100.5270 1212.36
101.0233 7367.46
101.0739 1315.85
101.4643 1298.25
103.8138 1271.97
104.2828 1192.05
113.0233 8285.97
118.9795 3634.92
119.0339 2365.08
121.0280 1171.43
122.1944 1421.52
122.4395 1328.95
159.8783 1307.72
165.7881 1240.95
166.8217 1655.61
173.2230 1308.88
178.1302 1402.54
179.0552 1955.98
182.2457 1374.30

Name: Levetiracetam
PrecursorMz: 169.09727
Precursor_type: 
Collision_energy: 30.0
Ionization: ESI
IonMode: negative
RetentionTime: 11.24468
InChiKey: 
Formula: C8 H14 N2 O2
CASNo: 
Smiles: 
CompoundClass: 
Comment: 
Num peaks: 29
51.3337 706.86
52.0182 1826.68
52.2903 982.80
57.4641 1053.99
66.0338 2141.27
68.3946 839.85
69.0723 770.46
71.0127 2607.30
73.2311 686.65
82.4299 673.94
83.4327 830.04
84.8514 691.75
88.0393 1207.14
88.3513 804.57
91.2796 754.41
94.4608 698.21
102.1254 911.29
103.6209 732.13
104.2185 906.17
125.5263 855.92
139.5484 856.73
140.9894 792.54
143.3579 775.51
159.4133 851.53
162.6664 759.15
168.6640 763.46
169.0860 1172.16
169.0972 33465.77
182.7431 850.90

Name: Levetiracetam
PrecursorMz: 169.09726
Precursor_type: 
Collision_energy: 30.0
Ionization: ESI
IonMode: negative
RetentionTime: 11.86150
InChiKey: 
Formula: C8 H14 N2 O2
CASNo: 
Smiles: 
CompoundClass: 
Comment: 
Num peaks: 35
52.0182 1193.59
53.8502 785.28
55.3061 779.38
55.4030 748.30
56.4222 692.90
56.4384 820.51
57.3992 949.31
66.0339 991.94
71.0128 1859.03
71.9955 850.95
72.5839 860.07
74.3994 855.07
75.2924 747.97
75.4516 792.11
80.1491 770.38
83.4266 765.09
88.0392 8810.08
88.5067 684.25
89.6271 676.73
94.6955 827.62
101.7142 686.07
103.5411 832.82
105.9052 728.02
125.0960 841.25
129.4382 762.10
129.8959 735.87
130.1541 818.70
136.3869 768.66
144.2011 792.41
150.3886 914.42
153.8209 742.09
169.0972 38495.35
176.0100 794.46
182.0266 793.71
189.5825 734.15

Name: Methionine S-oxide 11.5 gang
PrecursorMz: 164.03775
Precursor_type: 
Collision_energy: 30.0
Ionization: ESI
IonMode: negative
RetentionTime: 11.60348
InChiKey: 
Formula: C5 H11 N O3 S
CASNo: 
Smiles: 
CompoundClass: 
Comment: 
Num peaks: 38
50.4650 723.75
52.2805 923.35
55.6447 771.39
56.8488 805.45
57.3968 788.64
57.6729 820.71
60.9744 871.61
62.1175 706.34
63.9614 4546.81
65.1053 692.04
72.0079 738.85
72.2485 760.70
75.8839 869.25
76.9693 4300.83
79.9564 3911.27
83.4812 753.72
84.9682 710.93
86.6506 775.55
92.0494 792.18
92.9434 819.36
97.8496 763.79
99.9993 873.35
100.0393 6903.75
101.5698 735.86
104.1991 780.83
106.4664 791.87
110.0921 754.43
111.0143 868.19
113.8682 801.88
119.9506 1684.11
122.3722 812.11
131.7846 799.08
131.8852 740.64
137.2196 720.71
149.0140 1281.22
164.0378 5574.61
164.0709 893.29
174.8203 950.30

Name: Anhydrohexose
PrecursorMz: 161.04451
Precursor_type: 
Collision_energy: 30.0
Ionization: ESI
IonMode: negative
RetentionTime: 11.19025
InChiKey: 
Formula: C6 H10 O5
CASNo: 
Smiles: 
CompoundClass: 
Comment: 
Num peaks: 31
52.2536 696.35
53.4262 752.35
54.1910 699.03
55.1634 772.31
56.6411 764.23
59.0127 899.09
60.2147 745.38
66.6939 883.16
67.5523 688.71
71.0127 2213.05
73.0283 1751.03
73.0578 730.65
82.2503 856.96
83.1738 707.78
85.0283 1247.57
92.9502 825.36
104.2085 729.25
113.0232 1303.34
116.9273 3419.00
118.4484 782.88
119.3246 788.65
124.5364 876.41
125.3537 773.67
131.0334 1330.48
133.8479 819.85
142.9237 934.39
160.9347 1212.26
161.0346 2021.75
161.0444 1570.86
166.2125 873.12
173.4571 821.82

Name: Anhydrohexose
PrecursorMz: 161.04454
Precursor_type: 
Collision_energy: 30.0
Ionization: ESI
IonMode: negative
RetentionTime: 11.79758
InChiKey: 
Formula: C6 H10 O5
CASNo: 
Smiles: 
CompoundClass: 
Comment: 
Num peaks: 49
58.7964 709.26
58.8655 697.26
59.0128 5904.27
59.5287 730.35
61.1860 754.48
69.2540 855.18
69.2670 698.08
69.6534 772.08
71.0128 14178.78
73.0284 6312.88
75.2846 1202.10
83.0128 916.47
85.0284 12072.47
85.7922 799.11
87.0076 1166.59
89.0233 1164.88
89.4986 748.71
92.6412 790.41
95.0126 2887.15
97.8718 796.94
98.7192 694.03
101.0231 1545.69
102.9782 774.69
106.5073 740.05
108.4216 745.48
108.5750 822.60
112.6441 817.27
113.0233 6214.27
116.4043 897.86
117.6324 920.08
118.7260 844.56
118.9794 1245.44
124.0403 784.24
128.5840 808.92
131.0338 3286.81
132.9950 2546.20
134.8801 832.56
139.4527 845.77
143.0339 938.26
153.6421 1056.90
154.1958 767.73
160.9901 2099.64
161.0346 1911.26
161.0446 6846.60
164.4772 786.91
164.4810 705.63
170.0962 751.33
174.0470 809.51
174.6693 704.99

Name: MW_158.06810@RT_11.366
PrecursorMz: 157.06084
Precursor_type: 
Collision_energy: 30.0
Ionization: ESI
IonMode: negative
RetentionTime: 11.17707
InChiKey: 
Formula: C6 H10 N2 O3
CASNo: 
Smiles: 
CompoundClass: 
Comment: 
Num peaks: 35
50.2083 799.64
50.7937 735.75
52.4359 761.55
55.1213 779.53
55.3185 721.19
57.1199 834.96
58.0286 1013.91
58.5610 754.45
59.0128 16771.02
60.0761 803.46
75.0076 2037.75
77.1423 717.78
91.9215 904.32
92.0243 906.48
92.4311 884.50
92.9455 890.45
92.9472 836.62
93.9494 848.28
97.0395 1841.15
107.5119 767.74
113.0596 4669.33
113.0708 2890.25
113.0962 1112.33
117.6354 865.36
125.9972 712.84
139.0753 928.29
146.7190 729.64
157.0509 4634.88
157.0608 81979.59
157.0860 4914.85
157.1223 24167.25
164.4006 743.97
165.8242 771.54
169.1605 793.36
179.3076 875.03

Name: MW_158.06810@RT_11.366
PrecursorMz: 157.12230
Precursor_type: 
Collision_energy: 30.0
Ionization: ESI
IonMode: negative
RetentionTime: 11.46641
InChiKey: 
Formula: C6 H10 N2 O3
CASNo: 
Smiles: 
CompoundClass: 
Comment: 
Num peaks: 48
54.3632 814.27
56.8697 736.47
57.7839 829.82
58.3812 928.93
58.5078 784.74
59.0127 20274.07
65.3200 695.09
65.6874 743.41
68.2877 1128.78
68.4005 748.62
68.6806 726.81
69.1914 675.43
72.8161 836.15
73.2925 785.52
74.9758 784.91
75.0077 2135.19
75.0640 823.13
75.8770 807.85
77.9126 738.29
82.4127 780.14
83.4217 916.13
85.0282 865.00
86.2388 815.83
90.2313 842.71
92.7885 735.78
92.9481 990.59
97.0395 1947.74
113.0232 2158.24
113.0596 10314.33
113.0709 5044.30
113.0960 2299.76
116.8193 730.02
125.2599 842.47
128.0342 994.11
129.0543 953.00
129.0659 858.19
130.7704 769.01
131.4971 801.59
133.8438 922.91
153.5468 829.20
153.6466 963.48
157.0499 4657.42
157.0608 103485.10
157.0859 4060.79
157.1223 23875.68
157.8709 768.41
167.4453 804.48
179.4352 811.44

Name: Pentose sugar
PrecursorMz: 149.04453
Precursor_type: 
Collision_energy: 30.0
Ionization: ESI
IonMode: negative
RetentionTime: 11.31614
InChiKey: 
Formula: C5 H10 O5
CASNo: 
Smiles: 
CompoundClass: 
Comment: 
Num peaks: 33
52.2876 801.27
53.6773 703.09
58.2315 849.29
59.0127 1062.16
60.9730 815.60
68.0109 719.34
69.9273 733.85
70.2895 666.80
71.0127 2570.10
71.6279 897.82
73.0284 2070.10
74.2535 911.56
75.2934 869.12
87.0076 1204.59
87.2124 744.75
88.5978 714.26
89.0233 11739.69
90.2988 815.78
99.2588 836.94
100.4215 848.79
102.5285 674.98
104.2116 614.31
107.4937 750.41
113.6775 827.08
119.1041 777.31
121.4052 799.01
124.2059 813.98
127.1543 788.27
131.0339 1026.37
131.1901 784.33
135.5546 752.61
148.9232 957.57
149.0444 3849.99

Name: MW_144.04120@RT_11.579
PrecursorMz: 143.07025
Precursor_type: 
Collision_energy: 30.0
Ionization: ESI
IonMode: negative
RetentionTime: 10.77031
InChiKey: 
Formula: C6 H8 O4
CASNo: 
Smiles: 
CompoundClass: 
Comment: 
Num peaks: 21
56.9290 769.24
59.0127 811.03
61.9872 1577.78
62.6598 772.70
63.4349 771.79
63.7423 679.58
64.6671 802.60
66.4345 823.19
70.2985 841.15
75.2913 788.60
78.1177 761.51
83.5575 761.24
87.1243 725.30
94.5957 770.65
100.3552 811.32
116.1209 709.40
136.2129 725.57
136.6733 725.04
142.9237 2187.03
143.0352 1982.09
149.2353 837.90

Name: MW_98.03570@RT_11.596
PrecursorMz: 96.97513
Precursor_type: 
Collision_energy: 30.0
Ionization: ESI
IonMode: negative
RetentionTime: 12.37275
InChiKey: 
Formula: unknown
CASNo: 
Smiles: 
CompoundClass: 
Comment: 
Num peaks: 28
50.3795 794.17
50.8259 683.71
51.2189 671.44
53.4777 699.32
53.6399 674.73
53.8056 701.93
54.7395 744.77
55.2705 848.78
63.7377 707.99
64.8577 659.05
68.7006 662.17
68.8105 657.34
70.1553 727.63
70.3707 808.98
71.1006 683.42
72.4576 698.30
75.2892 748.23
76.9689 7400.94
77.6480 778.22
78.9579 1881.25
78.9645 8389.35
79.5422 847.41
80.2701 704.19
94.9794 8301.80
96.9589 5208.02
96.9750 19586.72
97.0282 899.74
104.1654 716.91

Name: MW_98.03570@RT_11.596
PrecursorMz: 96.92102
Precursor_type: 
Collision_energy: 30.0
Ionization: ESI
IonMode: negative
RetentionTime: 12.78310
InChiKey: 
Formula: unknown
CASNo: 
Smiles: 
CompoundClass: 
Comment: 
Num peaks: 20
55.7699 732.90
56.9334 682.06
60.8816 785.82
62.2301 786.11
63.1138 726.45
68.2975 766.23
71.3982 864.63
76.9690 4188.53
78.9579 19835.29
78.9646 7169.69
83.4333 799.69
93.6480 706.72
94.9794 4390.41
96.9209 22970.59
96.9589 13110.48
96.9684 3991.88
96.9751 14130.50
97.0283 1803.23
97.0396 998.39
104.1271 806.53

Name: MW_98.03570@RT_11.596
PrecursorMz: 96.97511
Precursor_type: 
Collision_energy: 30.0
Ionization: ESI
IonMode: negative
RetentionTime: 13.12381
InChiKey: 
Formula: unknown
CASNo: 
Smiles: 
CompoundClass: 
Comment: 
Num peaks: 33
50.2361 714.66
52.6994 733.67
59.5498 749.92
68.2931 893.77
69.7959 656.23
70.0851 749.18
74.8656 799.78
75.2929 865.72
76.9689 12174.72
78.9579 1758.75
78.9646 15758.92
80.7101 674.10
81.5370 724.95
83.1234 678.16
83.4268 1214.55
83.4283 799.33
83.8410 635.07
87.0258 824.60
93.3197 741.40
94.9795 13554.49
95.5699 889.34
96.6319 790.02
96.9210 1500.90
96.9588 4066.52
96.9751 30051.17
97.0283 1603.81
97.0396 1328.92
100.5454 692.46
104.2126 881.81
104.7681 784.76
108.5777 789.56
111.0673 677.55
113.9630 699.11

Name: MW_98.03570@RT_11.596
PrecursorMz: 97.03963
Precursor_type: 
Collision_energy: 30.0
Ionization: ESI
IonMode: negative
RetentionTime: 13.48196
InChiKey: 
Formula: unknown
CASNo: 
Smiles: 
CompoundClass: 
Comment: 
Num peaks: 29
54.8421 700.99
56.5324 731.50
57.8653 703.45
59.5152 933.49
63.0807 715.69
69.8601 720.17
72.3584 707.97
73.3515 734.69
76.6705 748.19
76.9689 7913.07
78.9580 1255.66
78.9646 11610.29
81.2098 785.21
89.7726 704.42
92.3317 692.47
92.9567 870.53
94.5234 782.54
94.7166 770.32
94.9795 8562.00
94.9868 792.39
95.2852 826.59
96.0249 693.49
96.9589 5361.39
96.9751 26740.87
97.0283 977.27
97.0395 1891.15
103.2813 687.87
106.8332 688.78
106.8396 868.46

Name: MW_98.03570@RT_11.596
PrecursorMz: 96.97512
Precursor_type: 
Collision_energy: 30.0
Ionization: ESI
IonMode: negative
RetentionTime: 13.76625
InChiKey: 
Formula: unknown
CASNo: 
Smiles: 
CompoundClass: 
Comment: 
Num peaks: 28
53.7572 688.81
56.9592 723.03
59.4903 710.61
65.0404 736.43
75.2927 1059.87
76.9689 9228.10
77.1359 824.37
78.9579 2627.07
78.9645 11100.54
79.2027 838.85
79.4584 822.24
79.6530 715.28
79.8235 802.75
81.8042 679.52
82.4168 716.77
83.4267 856.73
86.2208 704.80
92.9535 977.52
94.9795 6489.79
96.9590 4414.68
96.9751 21729.53
97.0396 2198.46
97.9984 759.23
98.6403 669.15
102.6280 737.63
103.3234 672.83
108.2151 750.39
110.2605 718.35

Name: Creatine (drop this duplicate)
PrecursorMz: 130.06107
Precursor_type: 
Collision_energy: 30.0
Ionization: ESI
IonMode: negative
RetentionTime: 11.59973
InChiKey: 
Formula: C4 H9 N3 O2
CASNo: 
Smiles: 
CompoundClass: 
Comment: 
Num peaks: 28
51.3799 743.10
53.7276 750.98
55.0118 742.61
55.3507 644.21
59.0668 860.60
60.3076 753.13
60.3424 660.90
63.4405 690.17
64.9000 686.34
65.5850 780.03
67.2637 733.31
68.0494 850.58
68.8986 738.77
69.2964 713.01
71.0127 1146.98
73.0838 685.96
74.4810 817.01
84.0444 1844.56
86.0602 836.30
87.6000 855.57
87.9810 780.28
88.0392 21195.75
89.8608 738.05
102.9053 887.65
128.0342 8381.98
130.0498 14179.56
130.0861 2982.10
145.0653 878.35

Name: Creatine (drop this duplicate)
PrecursorMz: 130.04979
Precursor_type: 
Collision_energy: 30.0
Ionization: ESI
IonMode: negative
RetentionTime: 11.79705
InChiKey: 
Formula: C4 H9 N3 O2
CASNo: 
Smiles: 
CompoundClass: 
Comment: 
Num peaks: 27
52.8923 907.26
61.9421 686.20
62.3463 667.38
66.0338 2874.99
66.4750 824.81
68.0494 4858.11
71.0127 4082.14
73.0284 1819.91
78.0217 780.33
82.0286 2681.50
84.0443 7227.57
86.0236 1811.72
86.4767 767.60
88.0392 72141.02
89.4835 760.09
92.9491 922.81
102.4257 798.63
112.0392 2826.19
128.0313 950.41
128.0341 30568.94
130.0498 49813.41
130.0859 2036.06
130.1058 745.71
130.9330 784.36
142.5707 838.45
143.2884 793.27
143.6984 823.16

Name: 4-oxoproline
PrecursorMz: 128.03423
Precursor_type: 
Collision_energy: 30.0
Ionization: ESI
IonMode: negative
RetentionTime: 11.45489
InChiKey: 
Formula: C5 H9 N O4
CASNo: 
Smiles: 
CompoundClass: 
Comment: 
Num peaks: 15
50.2984 691.12
55.8833 758.19
62.3995 731.51
62.8089 666.41
62.8204 676.44
65.6581 753.21
75.2875 823.80
84.5242 847.42
87.9968 789.96
104.2043 824.87
105.7197 809.10
106.4817 799.43
119.6836 842.14
127.8960 1053.06
128.0342 9477.49

Name: MW_120.04115@RT_11.558
PrecursorMz: 119.03387
Precursor_type: 
Collision_energy: 30.0
Ionization: ESI
IonMode: negative
RetentionTime: 11.51545
InChiKey: 
Formula: unknown
CASNo: 
Smiles: 
CompoundClass: 
Comment: 
Num peaks: 30
55.0179 1064.30
55.2950 683.25
56.9291 725.95
58.0246 745.22
59.0128 22423.39
60.9740 2222.44
66.2304 885.82
68.2895 831.17
69.5033 875.06
71.0127 15407.81
72.9919 865.62
73.0284 11807.83
73.9800 801.94
76.8049 822.06
76.9689 1061.57
82.1069 826.63
82.1458 740.02
87.0076 2971.55
89.0233 3070.44
90.9846 882.61
94.0779 917.17
94.9793 1026.47
101.0232 1791.44
104.2060 754.81
118.9642 1416.23
118.9795 16019.14
119.0240 4248.54
119.0338 12046.11
119.2033 922.35
131.7211 795.39

Name: MW_74.03567@RT_11.543
PrecursorMz: 73.02847
Precursor_type: 
Collision_energy: 30.0
Ionization: ESI
IonMode: negative
RetentionTime: 11.44886
InChiKey: 
Formula: unknown
CASNo: 
Smiles: 
CompoundClass: 
Comment: 
Num peaks: 13
62.2227 840.51
62.4063 676.97
65.3160 654.54
72.9920 8702.04
73.0284 9601.18
75.2883 758.58
78.1034 660.29
84.1004 726.81
86.6120 701.70
86.6134 737.99
87.1345 739.63
87.3361 721.12
87.9934 677.47

Name: MW_74.03567@RT_11.543
PrecursorMz: 72.99211
Precursor_type: 
Collision_energy: 30.0
Ionization: ESI
IonMode: negative
RetentionTime: 11.45632
InChiKey: 
Formula: unknown
CASNo: 
Smiles: 
CompoundClass: 
Comment: 
Num peaks: 9
57.7272 707.54
60.4647 705.28
63.0560 816.76
68.6798 740.50
72.9920 10460.26
73.0284 10662.23
73.2121 704.64
74.5769 763.53
74.8552 692.67

Name: MW_74.03567@RT_11.543
PrecursorMz: 73.02848
Precursor_type: 
Collision_energy: 30.0
Ionization: ESI
IonMode: negative
RetentionTime: 12.08461
InChiKey: 
Formula: unknown
CASNo: 
Smiles: 
CompoundClass: 
Comment: 
Num peaks: 11
50.3856 720.16
52.5699 696.98
55.0607 706.94
66.6072 738.93
69.8983 675.72
71.6617 770.29
72.9920 1887.05
73.0284 11958.62
75.3188 794.80
80.9861 676.23
82.3103 717.00

Name: MW_114.03057@RT_11.561
PrecursorMz: 112.98447
Precursor_type: 
Collision_energy: 30.0
Ionization: ESI
IonMode: negative
RetentionTime: 11.51771
InChiKey: 
Formula: unknown
CASNo: 
Smiles: 
CompoundClass: 
Comment: 
Num peaks: 28
55.0179 9254.45
55.1401 902.89
56.0706 843.42
56.1483 1192.83
57.0335 32055.28
62.2231 874.00
62.5853 887.90
64.7806 958.56
64.8196 993.78
67.0179 1484.04
68.9947 127278.30
69.0335 1342.70
72.9921 2256.02
75.2902 884.20
83.0128 5196.79
84.0206 17212.62
85.0284 116971.00
92.5937 928.56
92.9511 1038.14
95.0127 3258.40
95.5948 940.83
102.9203 872.09
104.2077 1055.92
112.9845 5747.76
113.0233 18092.85
115.3620 1006.21
119.9728 1075.75
133.8492 961.85

Name: MW_114.03057@RT_11.561
PrecursorMz: 113.02334
Precursor_type: 
Collision_energy: 30.0
Ionization: ESI
IonMode: negative
RetentionTime: 11.72538
InChiKey: 
Formula: unknown
CASNo: 
Smiles: 
CompoundClass: 
Comment: 
Num peaks: 33
51.8953 690.45
55.0179 7297.86
57.0335 23373.59
57.6602 838.82
58.1229 729.29
62.8363 721.28
64.3059 743.43
64.6905 818.06
65.0960 782.93
67.0178 1745.12
67.1341 735.78
68.9947 107880.10
71.0127 1258.91
71.1027 903.12
75.2859 938.60
76.3723 879.39
82.6620 817.06
83.0128 3279.97
84.0206 10912.97
84.0967 776.20
85.0032 977.64
85.0284 79199.51
85.2155 854.28
85.3618 755.11
89.1693 715.43
92.9461 869.48
95.0127 2558.44
104.2030 1129.99
107.7174 725.75
112.9844 3377.39
113.0233 11538.88
113.8913 743.35
117.1413 1081.92

Name: MW_102.03059@RT_11.563
PrecursorMz: 101.02333
Precursor_type: 
Collision_energy: 30.0
Ionization: ESI
IonMode: negative
RetentionTime: 11.58671
InChiKey: 
Formula: unknown
CASNo: 
Smiles: 
CompoundClass: 
Comment: 
Num peaks: 30
55.0179 20930.21
55.2667 827.25
55.7955 653.96
55.9428 876.73
59.0128 5614.11
64.9183 763.27
67.6106 676.95
67.7438 717.86
68.3916 745.78
69.7811 676.10
69.9499 665.99
70.7993 733.59
70.9874 702.36
71.0127 4421.04
71.1606 739.80
73.0284 6909.35
73.5141 693.19
75.2898 792.97
75.7114 721.29
78.6084 714.52
82.8714 703.33
83.0127 5099.79
83.4261 732.81
89.7028 801.59
96.4446 733.79
98.3371 726.02
99.4557 748.95
101.0233 3702.54
104.2062 1023.82
116.9824 723.48

Name: Lactic acid (drop this duplicate)
PrecursorMz: 89.02332
Precursor_type: 
Collision_energy: 30.0
Ionization: ESI
IonMode: negative
RetentionTime: 11.23976
InChiKey: 
Formula: C3 H6 O3
CASNo: 
Smiles: 
CompoundClass: 
Comment: 
Num peaks: 19
51.4399 753.44
56.0037 940.80
56.2130 692.40
56.9308 760.40
58.0050 1338.52
59.0128 18295.60
60.2510 670.18
61.9295 661.51
68.2914 862.98
68.8351 839.14
71.0128 7654.38
71.8951 746.77
72.9921 2451.33
73.0485 831.16
81.7049 811.50
83.8917 867.21
89.0137 828.77
89.0233 33716.35
100.6459 732.74

Name: Lactic acid (drop this duplicate)
PrecursorMz: 89.02330
Precursor_type: 
Collision_energy: 30.0
Ionization: ESI
IonMode: negative
RetentionTime: 11.79221
InChiKey: 
Formula: C3 H6 O3
CASNo: 
Smiles: 
CompoundClass: 
Comment: 
Num peaks: 24
52.2874 695.47
53.1500 724.61
53.5192 721.65
54.8642 752.16
58.0050 1333.12
59.0128 24132.45
59.1117 853.29
59.7022 737.11
59.7563 975.99
68.2941 711.78
69.8158 696.82
71.0128 9021.62
72.9920 1838.60
75.3266 789.71
75.5265 726.35
76.2390 845.94
82.9161 852.06
84.5979 713.64
87.0078 1024.85
89.0233 21145.52
89.0427 5235.04
100.8108 673.61
104.6425 803.76
105.6313 736.59

Name: MW_86.03569@RT_11.562
PrecursorMz: 85.02843
Precursor_type: 
Collision_energy: 30.0
Ionization: ESI
IonMode: negative
RetentionTime: 11.25858
InChiKey: 
Formula: unknown
CASNo: 
Smiles: 
CompoundClass: 
Comment: 
Num peaks: 19
52.4641 673.32
52.8092 670.41
54.9847 674.46
55.0178 3164.67
57.0335 1421.70
57.9923 11352.88
58.1844 731.85
58.9653 787.68
59.7636 668.34
68.2873 789.93
72.0186 869.17
72.2344 736.96
75.2863 919.43
85.0032 180273.00
85.0282 2190.55
86.8351 895.53
87.7388 753.75
92.9463 911.77
101.1693 816.96

Name: MW_86.03569@RT_11.562
PrecursorMz: 85.00327
Precursor_type: 
Collision_energy: 30.0
Ionization: ESI
IonMode: negative
RetentionTime: 11.44392
InChiKey: 
Formula: unknown
CASNo: 
Smiles: 
CompoundClass: 
Comment: 
Num peaks: 24
50.3829 814.42
50.7791 901.50
50.9692 823.13
51.4587 1003.41
55.0178 10633.71
56.9261 786.02
57.0335 8043.80
57.9924 11042.30
59.5438 877.40
60.4868 706.32
64.9676 727.77
65.9613 703.08
68.3415 760.80
72.3117 798.18
74.5023 825.97
74.7205 926.45
75.8738 770.95
77.7574 912.79
85.0032 162327.60
85.0284 6743.72
100.2252 860.68
100.7715 788.43
101.3487 812.30
101.8650 767.06

Name: MW_86.03569@RT_11.562
PrecursorMz: 85.02840
Precursor_type: 
Collision_energy: 30.0
Ionization: ESI
IonMode: negative
RetentionTime: 11.87513
InChiKey: 
Formula: unknown
CASNo: 
Smiles: 
CompoundClass: 
Comment: 
Num peaks: 27
51.2070 728.85
52.5916 702.98
53.6831 754.85
53.9563 746.47
54.1194 807.04
54.6640 785.21
55.0179 2034.69
56.1886 766.63
57.0335 1290.48
57.9924 6903.86
58.2171 777.85
62.1078 782.65
62.2212 872.26
62.6742 807.97
66.0625 809.11
69.0920 718.71
71.0128 782.89
75.1419 782.61
85.0032 162802.90
85.0284 2527.68
85.6563 791.15
91.8380 734.82
92.9485 725.22
96.1920 805.99
96.2220 740.04
97.6412 790.11
104.2051 1013.47

Name: Acrylic acid
PrecursorMz: 71.01276
Precursor_type: 
Collision_energy: 30.0
Ionization: ESI
IonMode: negative
RetentionTime: 11.18196
InChiKey: 
Formula: C3 H4 O2
CASNo: 
Smiles: 
CompoundClass: 
Comment: 
Num peaks: 18
50.7139 800.84
51.5736 660.35
52.2856 767.81
53.0615 865.05
53.7741 723.45
53.8937 738.97
58.3824 768.03
60.5806 690.24
61.6850 712.45
63.4323 664.44
64.1267 738.85
68.2888 980.95
71.0127 6319.29
73.3461 688.55
77.2188 686.52
86.4667 668.04
86.9547 763.33
87.6411 667.66

Name: Acrylic acid
PrecursorMz: 71.01277
Precursor_type: 
Collision_energy: 30.0
Ionization: ESI
IonMode: negative
RetentionTime: 11.79201
InChiKey: 
Formula: C3 H4 O2
CASNo: 
Smiles: 
CompoundClass: 
Comment: 
Num peaks: 18
51.1463 694.90
51.4871 694.83
51.7104 794.16
53.3029 661.17
53.6308 636.87
56.0039 737.05
59.0603 674.79
59.1577 749.82
62.0243 715.87
62.1637 638.21
62.9745 737.18
68.2872 948.70
68.2882 930.91
69.5811 692.94
70.8388 714.03
71.0128 21471.07
80.6176 767.47
80.8222 702.96

